SCIP version 5.0.0 [precision: 8 byte] [memory: block] [mode: optimized] [LP solver: NONE] [GitHash: 3bbd232]
Copyright (C) 2002-2017 Konrad-Zuse-Zentrum fuer Informationstechnik Berlin (ZIB)

External codes: 
  Readline EditLine w  GNU library for command line editing (gnu.org/s/readline)
  CppAD 20160000.1     Algorithmic Differentiation of C++ algorithms developed by B. Bell (www.coin-or.org/CppAD)
  ZLIB 1.2.5           General purpose compression library by J. Gailly and M. Adler (zlib.net)
  GMP 6.1.2            GNU Multiple Precision Arithmetic Library developed by T. Granlund (gmplib.org)

user parameter file <scip.set> not found - using default parameters

read problem <../../Split_data/output/breast/8/3_sample_breast.logreg>
============

File name	:	../../Split_data/output/breast/8/3_sample_breast.logreg
Problem name 	:	3_sample_breast
Number of data	:	155
Number of var	:	33
The given data has linear independence

[dim=1] time: 0.003651
[dim=2] time: 0.007914
[dim=3] time: 0.012077
[dim=4] time: 0.015698
[dim=5] time: 0.019569
[dim=6] time: 0.023449
[dim=7] time: 0.027169
[dim=8] time: 0.030844
[dim=9] time: 0.034357
[dim=10] time: 0.03777
[dim=11] time: 0.040816
[dim=12] time: 0.043915
[dim=13] time: 0.046701
[dim=14] time: 0.049408
[dim=15] time: 0.051859
[dim=16] Time of forward = 0.054397sec.
AIC: 121.947
k: 15

[dim=33] time: 0.012602
[dim=32] time: 0.025363
[dim=31] time: 0.038047
[dim=30] time: 0.056328
[dim=29] time: 0.0696
[dim=28] time: 0.083652
[dim=27] time: 0.095663
[dim=26] time: 0.104521
[dim=25] time: 0.115196
[dim=24] time: 0.121792
[dim=23] time: 0.129173
[dim=22] time: 0.134996
[dim=21] time: 0.141394
[dim=20] time: 0.14634
[dim=19] Time of backward = 0.15112sec.
AIC: 115.546
k: 20
